CapLotSizing_PM/src/Instancias/NCLSHT/6i6p6m/NBA03.OUT
 CG ITER, OVMR, OVMRUB =           1   16036.6357422    8012.0004883
 CG ITER, OVMR, OVMRUB =           2   10687.3798828    8012.0004883
 CG ITER, OVMR, OVMRUB =           3   10687.3798828    8012.0004883
 CG ITER, OVMR, OVMRUB =           4   10687.3798828    8012.0004883
 CG ITER, OVMR, OVMRUB =           5   10687.3798828    8012.0004883
 CG ITER, OVMR, OVMRUB =           6   10687.3798828    8012.0004883
 CG ITER, OVMR, OVMRUB =           7   10687.3798828    8012.0004883
 CG ITER, OVMR, OVMRUB =           8   10687.3798828    8012.0004883
 CG ITER, OVMR, OVMRUB =           9   10687.3798828    8012.0004883
 CG ITER, OVMR, OVMRUB =          10   10687.3798828    8012.0004883
OVLB =   10687.3798828 OVLUB =    8012.0004883 TIME =       0.6400000
